p cnf 15 24
-1 -2 0
-1 -3 0
-2 -3 0
-4 -5 0
-4 -6 0
-5 -6 0
-7 -8 0
-7 -9 0
-8 -9 0
-10 -11 0
-10 -12 0
-11 -12 0
-13 -14 0
-13 -15 0
-14 -15 0
1 4 7 10 13 0
2 5 8 11 14 0
3 6 9 12 15 0
1 6 8 10 15 0
2 4 9 11 13 0
3 5 7 12 14 0
1 5 9 10 14 0
2 6 7 11 15 0
3 4 8 12 13 0
